c Generated by SAT Solver
p cnf 2002 132
101 102 0
201 202 0
301 302 0
401 402 0
501 502 0
601 602 0
701 702 0
801 802 0
901 902 0
1001 1002 0
1101 1102 0
1201 1202 0
1301 1302 0
1401 1402 0
1501 1502 0
1601 1602 0
1701 1702 0
1801 1802 0
1901 1902 0
2001 2002 0
-101 -102 0
-201 -202 0
-301 -302 0
-401 -402 0
-501 -502 0
-601 -602 0
-701 -702 0
-801 -802 0
-901 -902 0
-1001 -1002 0
-1101 -1102 0
-1201 -1202 0
-1301 -1302 0
-1401 -1402 0
-1501 -1502 0
-1601 -1602 0
-1701 -1702 0
-1801 -1802 0
-1901 -1902 0
-2001 -2002 0
-101 -201 0
-102 -202 0
-101 -301 0
-102 -302 0
-101 -801 0
-102 -802 0
-101 -1101 0
-102 -1102 0
-101 -1201 0
-102 -1202 0
-101 -1301 0
-102 -1302 0
-101 -1501 0
-102 -1502 0
-101 -2001 0
-102 -2002 0
-201 -1601 0
-202 -1602 0
-301 -501 0
-302 -502 0
-301 -601 0
-302 -602 0
-301 -1301 0
-302 -1302 0
-301 -1501 0
-302 -1502 0
-301 -1901 0
-302 -1902 0
-401 -1401 0
-402 -1402 0
-401 -1501 0
-402 -1502 0
-401 -1601 0
-402 -1602 0
-401 -1701 0
-402 -1702 0
-401 -1901 0
-402 -1902 0
-401 -2001 0
-402 -2002 0
-501 -901 0
-502 -902 0
-501 -1201 0
-502 -1202 0
-501 -1301 0
-502 -1302 0
-501 -1601 0
-502 -1602 0
-501 -2001 0
-502 -2002 0
-601 -901 0
-602 -902 0
-601 -1401 0
-602 -1402 0
-601 -1901 0
-602 -1902 0
-601 -2001 0
-602 -2002 0
-701 -801 0
-702 -802 0
-701 -1401 0
-702 -1402 0
-701 -1701 0
-702 -1702 0
-701 -1801 0
-702 -1802 0
-801 -901 0
-802 -902 0
-801 -1601 0
-802 -1602 0
-801 -2001 0
-802 -2002 0
-901 -1001 0
-902 -1002 0
-901 -1101 0
-902 -1102 0
-901 -1301 0
-902 -1302 0
-901 -1501 0
-902 -1502 0
-1101 -1701 0
-1102 -1702 0
-1101 -1901 0
-1102 -1902 0
-1401 -1901 0
-1402 -1902 0
-1501 -2001 0
-1502 -2002 0
-1601 -1901 0
-1602 -1902 0
-1701 -2001 0
-1702 -2002 0
